52 1 48 84 2 6 34 24 35 43 59 12 11 50 92 36 17 3 19 93 21 83 87 96 71 56 4 28 14 13 31 33 89 66 44 37 38 27 29 40 91 58 15 68 46 5 79 45 22 25 73 53 54 39 57 7 30 86 67 95 23 99 10 65 49 20 16 72 82 63 62 75 76 77 42 26 80 88 8 94 18 85 51 74 81 9 90 78 64 98 97 41 47 69 61 70 